Minimize
  obj: x0 + x1 + x2 + x3

Subject To
  c0: x0 + x1 + x3 = 12
  c1: x3 = 3
  c2: x0 + x2 + x3 = 21
  c3: x0 + x1 + x2 = 20
  c4: x0 + x2 + x3 = 21

Bounds
  x0 >= 0
  x1 >= 0
  x2 >= 0
  x3 >= 0

Generals
  x0 x1 x2 x3

End
